169170.29,51.56,63.94
167595.55,52.05,64.54
174718.54,49.92,61.91
180694.73,48.27,59.86
163439.81,53.37,66.18
175741.34,49.63,61.55
185726.9,46.97,58.24
169601.99,51.43,63.78
175398.68,49.73,61.67
188138.33,46.36,57.49
193598.83,45.06,55.87
178514.64,48.86,60.59
169602.82,51.43,63.78
165000.27,52.86,65.56
181904.46,47.95,59.46
175033.03,49.83,61.8
178731.76,48.8,60.52
187512.49,46.52,57.69
176494.79,49.42,61.29
157216.91,55.48,68.8
